Version identifier: 22.1.1.0 | 2022-11-28 | 9160aff4d
CPXPARAM_ClockType                               1
CPXPARAM_Read_DataCheck                          1
CPXPARAM_Threads                                 1
CPXPARAM_Simplex_Tolerances_Optimality           1.0000000000000001e-09
CPXPARAM_TimeLimit                               7200
CPXPARAM_MIP_Tolerances_AbsMIPGap                0
CPXPARAM_MIP_Tolerances_MIPGap                   0
CPXPARAM_MIP_Tolerances_Integrality              0
Tried aggregator 1 time.
MIQP Presolve eliminated 122742 rows and 4 columns.
MIQP Presolve modified 44568 coefficients.
Reduced MIQP has 52884 rows, 6296 columns, and 353716 nonzeros.
Reduced MIQP has 5666 binaries, 630 generals, 0 SOSs, and 0 indicators.
Reduced MIQP objective Q matrix has 630 nonzeros.
Presolve time = 2.51 sec. (1456.87 ticks)
Probing time = 0.02 sec. (5.53 ticks)
Tried aggregator 1 time.
MIQP Presolve eliminated 65 rows and 0 columns.
Reduced MIQP has 52819 rows, 6296 columns, and 352351 nonzeros.
Reduced MIQP has 5666 binaries, 630 generals, 0 SOSs, and 0 indicators.
Reduced MIQP objective Q matrix has 630 nonzeros.
Presolve time = 0.87 sec. (528.86 ticks)
Classifier predicts products in MIQP should be linearized.
Probing time = 0.02 sec. (5.50 ticks)
Clique table members: 46119.
MIP emphasis: balance optimality and feasibility.
MIP search method: dynamic search.
Parallel mode: none, using 1 thread.
Root relaxation solution time = 629.64 sec. (1588361.52 ticks)

        Nodes                                         Cuts/
   Node  Left     Objective  IInf  Best Integer    Best Bound    ItCnt     Gap

      0     0     1029.0856  4075                   1029.0856       13         

Clique cuts applied:  666
Zero-half cuts applied:  364

Root node processing (before b&c):
  Real time             = 7219.39 sec. (5183476.23 ticks)
Sequential b&c:
  Real time             =    0.00 sec. (0.00 ticks)
                          ------------
Total (root+branch&cut) = 7219.39 sec. (5183476.23 ticks)
Solution is infeasible.

---------------------
@@@ MIP_time_limit_infeasible
Traceback (most recent call last):
  File "/scratch/scherif/DiverseSAT-journal_sup/DiverseSAT_Supplementary_Experiments/experiment-1/cplex/jobs/../solvers/CPLEX-QP-SE.py", line 118, in <module>
    print(f">>> Benchmark {os.path.basename(cnf_file)} k {k} OPT {int(prob.solution.get_objective_value())}"
  File "/users/scherif/.local/lib/python3.9/site-packages/cplex/_internal/_subinterfaces.py", line 7211, in get_objective_value
    return CPX_PROC.getobjval(self._env._e, self._cplex._lp)
  File "/users/scherif/.local/lib/python3.9/site-packages/cplex/_internal/_procedural.py", line 2055, in getobjval
    check_status(env, status)
  File "/users/scherif/.local/lib/python3.9/site-packages/cplex/_internal/_procedural.py", line 249, in __call__
    raise CplexSolverError(error_string, env, status)
cplex.exceptions.errors.CplexSolverError: CPLEX Error  1217: No solution exists.
